NAME : rnd23_20.tsp
TYPE : TSP
DIMENSION : 20
EDGE_WEIGHT_TYPE : EUC_2D
NODE_COORD_SECTION
1 166 345
2 975 70
3 365 760
4 214 75
5 900 129
6 550 105
7 268 866
8 833 562
9 895 372
10 130 192
11 670 454
12 586 38
13 511 577
14 464 521
15 646 930
16 656 333
17 827 484
18 716 380
19 811 432
20 0 746
